0 3069
1 2661
2 2483
3 2416
4 2416
5 2292
6 2269
7 2116
8 2116
9 2005
10 1988
11 1988
12 1966
13 1934
14 1883
15 1883
16 1855
17 1805
18 1784
19 1772
20 1763
21 1719
22 1716
23 1716
24 1657
25 1657
26 1657
27 1657
28 1610
29 1610
30 1610
31 1597
32 1597
33 1579
34 1579
35 1579
36 1537
37 1537
38 1537
39 1507
40 1507
41 1489
42 1489
43 1489
44 1489
45 1480
46 1480
47 1464
48 1464
49 1454
50 1454
51 1454
52 1454
53 1429
54 1427
55 1427
56 1427
57 1427
58 1427
59 1418
60 1399
61 1399
62 1399
63 1399
64 1399
65 1388
66 1388
67 1384
68 1384
69 1384
70 1373
71 1373
72 1373
73 1373
74 1352
75 1352
76 1352
77 1351
78 1351
79 1351
80 1351
81 1340
82 1340
83 1340
84 1340
85 1340
86 1337
87 1337
88 1337
89 1332
90 1317
91 1317
92 1317
93 1317
94 1317
95 1317
96 1317
97 1309
98 1309
99 1309
100 1309
101 1299
102 1299
103 1291
104 1291
105 1291
106 1291
107 1291
108 1291
109 1291
110 1291
111 1291
112 1291
113 1291
114 1291
115 1291
116 1291
117 1291
118 1291
119 1291
120 1291
121 1278
122 1267
123 1267
124 1267
125 1267
126 1267
127 1267
128 1267
129 1267
130 1267
131 1267
132 1267
133 1267
134 1267
135 1266
136 1266
137 1266
138 1266
139 1266
140 1257
141 1257
142 1257
143 1257
144 1257
145 1257
146 1257
147 1257
148 1257
149 1257
150 1257
151 1257
152 1257
153 1257
154 1257
155 1257
156 1257
157 1256
158 1256
159 1256
160 1256
161 1256
162 1256
163 1256
164 1256
165 1256
166 1256
167 1256
168 1256
169 1256
170 1256
171 1256
172 1256
173 1256
174 1256
175 1242
176 1242
177 1242
178 1242
179 1242
180 1242
181 1242
182 1242
183 1242
184 1242
185 1242
186 1240
187 1240
188 1240
189 1240
190 1240
191 1240
192 1240
193 1240
194 1240
195 1240
196 1240
197 1240
198 1235
199 1233
200 1233
201 1233
202 1233
203 1233
204 1233
205 1230
206 1230
207 1230
208 1230
209 1230
210 1230
211 1230
212 1230
213 1230
214 1230
215 1230
216 1230
217 1230
218 1230
219 1230
220 1230
221 1230
222 1230
223 1230
224 1218
225 1218
226 1218
227 1218
228 1218
229 1218
230 1218
231 1218
232 1218
233 1218
234 1218
235 1218
236 1218
237 1218
238 1218
239 1218
240 1218
241 1218
242 1218
243 1218
244 1218
245 1218
246 1218
247 1218
248 1218
249 1218
250 1211
251 1211
252 1211
253 1211
254 1211
255 1211
256 1211
257 1211
258 1211
259 1211
260 1211
261 1211
262 1211
263 1211
264 1211
265 1211
266 1211
267 1211
268 1211
269 1211
270 1211
271 1211
272 1211
273 1211
274 1211
275 1211
276 1211
277 1211
278 1211
279 1211
280 1211
281 1211
282 1211
283 1211
284 1211
285 1211
286 1204
287 1204
288 1204
289 1204
290 1204
291 1204
292 1204
293 1204
294 1204
295 1204
296 1204
297 1204
298 1204
299 1204
300 1204
301 1204
302 1204
303 1204
304 1204
305 1204
306 1204
307 1204
308 1204
309 1204
310 1204
311 1203
312 1203
313 1195
314 1195
315 1195
316 1195
317 1195
318 1195
319 1195
320 1195
321 1195
322 1195
323 1195
324 1195
325 1195
326 1195
327 1195
328 1195
329 1195
330 1195
331 1195
332 1195
333 1195
334 1195
335 1195
336 1195
337 1195
338 1195
339 1195
340 1195
341 1195
342 1195
343 1195
344 1195
345 1195
346 1195
347 1195
348 1195
349 1195
350 1195
351 1195
352 1195
353 1195
354 1195
355 1195
356 1195
357 1195
358 1195
359 1195
360 1190
361 1190
362 1190
363 1190
364 1190
365 1190
366 1190
367 1190
368 1190
369 1190
370 1190
371 1190
372 1190
373 1190
374 1190
375 1190
376 1190
377 1190
378 1190
379 1190
380 1190
381 1190
382 1190
383 1190
384 1190
385 1190
386 1190
387 1190
388 1190
389 1190
390 1190
391 1187
392 1187
393 1187
394 1187
395 1187
396 1187
397 1187
398 1187
399 1187
400 1187
401 1187
402 1187
403 1187
404 1187
405 1187
406 1187
407 1187
408 1187
409 1187
410 1187
411 1187
412 1187
413 1187
414 1187
415 1170
416 1170
417 1170
418 1170
419 1170
420 1170
421 1170
422 1170
423 1170
424 1170
425 1170
426 1170
427 1170
428 1170
429 1170
430 1170
431 1170
432 1170
433 1170
434 1170
435 1170
436 1170
437 1170
438 1170
439 1170
440 1170
441 1170
442 1170
443 1170
444 1170
445 1170
446 1170
447 1170
448 1170
449 1170
450 1170
451 1170
452 1170
453 1170
454 1170
455 1170
456 1162
457 1162
458 1162
459 1162
460 1162
461 1162
462 1162
463 1162
464 1162
465 1162
466 1162
467 1162
468 1162
469 1162
470 1162
471 1162
472 1162
473 1162
474 1162
475 1162
476 1162
477 1162
478 1162
479 1162
480 1162
481 1162
482 1162
483 1162
484 1162
485 1157
486 1157
487 1157
488 1157
489 1157
490 1157
491 1149
492 1149
493 1149
494 1149
495 1149
496 1149
497 1149
498 1149
499 1149
500 1149
501 1149
502 1149
503 1149
504 1149
505 1149
506 1149
507 1149
508 1149
509 1149
510 1149
511 1149
512 1149
513 1149
514 1138
515 1138
516 1138
517 1138
518 1138
519 1138
520 1138
521 1138
522 1138
523 1138
524 1138
525 1138
526 1138
527 1138
528 1138
529 1138
530 1138
531 1138
532 1138
533 1138
534 1138
535 1138
536 1138
537 1138
538 1138
539 1138
540 1138
541 1138
542 1138
543 1138
544 1138
545 1138
546 1138
547 1138
548 1138
549 1138
550 1138
551 1138
552 1138
553 1138
554 1138
555 1138
556 1138
557 1138
558 1138
559 1138
560 1138
561 1138
562 1138
563 1138
564 1138
565 1138
566 1138
567 1138
568 1138
569 1138
570 1128
571 1128
572 1128
573 1128
574 1128
575 1128
576 1128
577 1128
578 1128
579 1128
580 1128
581 1128
582 1128
583 1128
584 1128
585 1128
586 1128
587 1128
588 1128
589 1128
590 1128
591 1128
592 1128
593 1128
594 1128
595 1128
596 1128
597 1128
598 1128
599 1128
600 1128
601 1128
602 1128
603 1128
604 1128
605 1128
606 1128
607 1128
608 1128
609 1128
610 1128
611 1128
612 1128
613 1128
614 1128
615 1128
616 1128
617 1128
618 1128
619 1128
620 1128
621 1128
622 1128
623 1128
624 1128
625 1128
626 1128
627 1128
628 1128
629 1128
630 1128
631 1127
632 1127
633 1127
634 1127
635 1127
636 1127
637 1127
638 1127
639 1127
640 1127
641 1127
642 1127
643 1127
644 1127
645 1127
646 1127
647 1127
648 1127
649 1127
650 1127
651 1127
652 1127
653 1127
654 1127
655 1127
656 1127
657 1127
658 1127
659 1127
660 1127
661 1127
662 1127
663 1127
664 1127
665 1127
666 1127
667 1127
668 1127
669 1127
670 1127
671 1127
672 1127
673 1127
674 1127
675 1127
676 1127
677 1127
678 1127
679 1127
680 1127
681 1127
682 1127
683 1127
684 1127
685 1127
686 1127
687 1127
688 1127
689 1127
690 1127
691 1127
692 1127
693 1127
694 1127
695 1127
696 1127
697 1127
698 1127
699 1127
700 1127
701 1127
702 1127
703 1127
704 1127
705 1127
706 1127
707 1127
708 1127
709 1127
710 1127
711 1127
712 1127
713 1127
714 1127
715 1127
716 1127
717 1127
718 1127
719 1127
720 1127
721 1127
722 1127
723 1127
724 1127
725 1127
726 1127
727 1127
728 1127
729 1127
730 1127
731 1127
732 1127
733 1127
734 1127
735 1127
736 1127
737 1127
738 1127
739 1127
740 1127
741 1127
742 1127
743 1127
744 1127
745 1127
746 1127
747 1127
748 1127
749 1127
750 1127
751 1127
752 1127
753 1127
754 1127
755 1127
756 1127
757 1127
758 1127
759 1127
760 1127
761 1127
762 1127
763 1127
764 1127
765 1127
766 1127
767 1127
768 1127
769 1127
770 1127
771 1127
772 1127
773 1127
774 1127
775 1127
776 1127
777 1127
778 1127
779 1127
780 1127
781 1127
782 1127
783 1127
784 1127
785 1127
786 1127
787 1127
788 1127
789 1127
790 1127
791 1127
792 1127
793 1127
794 1127
795 1127
796 1127
797 1127
798 1127
799 1127
800 1127
801 1127
802 1127
803 1127
804 1127
805 1127
806 1127
807 1127
808 1127
809 1127
810 1127
811 1127
812 1127
813 1127
814 1127
815 1127
816 1127
817 1127
818 1127
819 1127
820 1127
821 1127
822 1127
823 1127
824 1127
825 1127
826 1127
827 1127
828 1127
829 1127
830 1127
831 1127
832 1127
833 1127
834 1127
835 1127
836 1127
837 1127
838 1127
839 1127
840 1127
841 1127
842 1127
843 1127
844 1127
845 1127
846 1127
847 1127
848 1127
849 1127
850 1127
851 1127
852 1127
853 1127
854 1127
855 1127
856 1127
857 1127
858 1127
859 1127
860 1127
861 1127
862 1127
863 1127
864 1127
865 1127
866 1127
867 1127
868 1127
869 1127
870 1127
871 1127
872 1127
873 1127
874 1127
875 1127
876 1127
877 1127
878 1127
879 1127
880 1127
881 1127
882 1127
883 1127
884 1127
885 1127
886 1127
887 1127
888 1127
889 1127
890 1127
891 1127
892 1127
893 1127
894 1127
895 1127
896 1127
897 1127
898 1127
899 1127
900 1127
901 1127
902 1127
903 1127
904 1127
905 1127
906 1127
907 1127
908 1127
909 1127
910 1127
911 1127
912 1127
913 1127
914 1127
915 1122
916 1122
917 1122
918 1122
919 1122
920 1122
921 1122
922 1122
923 1122
924 1122
925 1122
926 1122
927 1122
928 1122
929 1122
930 1122
931 1122
932 1122
933 1122
934 1122
935 1122
936 1122
937 1122
938 1122
939 1122
940 1122
941 1122
942 1122
943 1122
944 1122
945 1122
946 1122
947 1122
948 1122
949 1122
950 1122
951 1122
952 1122
953 1122
954 1122
955 1122
956 1122
957 1122
958 1122
959 1122
960 1122
961 1122
962 1122
963 1122
964 1122
965 1122
966 1122
967 1122
968 1122
969 1122
970 1122
971 1122
972 1122
973 1122
974 1122
975 1122
976 1122
977 1122
978 1122
979 1122
980 1122
981 1122
982 1122
983 1122
984 1122
985 1122
986 1122
987 1122
988 1122
989 1122
990 1122
991 1122
992 1122
993 1122
994 1122
995 1122
996 1122
997 1122
998 1122
999 1122
Best: [[30,37,7,21,15],
       [18,10,22,3,24,23,13],
       [8,26,36,25],
       [5,11,12,29,34,27,33,28],
       [19,14,31,16,17],
       [9,6,4,2,20,32,35]], fitness: 1122
